(declare-const p16_6 Real)
(declare-const p9_5 Real)
(declare-const sin Real)
(declare-const p17_62 Real)
(declare-const fee_bl Real)
(declare-const p19 Real)
(declare-const income Real)
(declare-const p13_47 Real)
(declare-const special Real)
(assert (= p9_5 (* 0.095 (ite (> income 33328) 33328 income))))
(assert (= p13_47 (ite (> income 33328) (* 0.1347 (- (ite (> income 64656) 64656 income) 33328)) 0)))
(assert (= p16_6 (ite (> income 64656) (* 0.166 (- (ite (> income 105000) 105000 income) 64656)) 0)))
(assert (= p17_62 (ite (> income 105000) (* 0.1762 (- (ite (> income 140000) 140000 income) 105000)) 0)))
(assert (= p19 (ite (> income 140000) (* 0.19 (- income 140000)) 0)))
(assert (= special (ite (>= sin 900000000) 0 1)))
(assert (= fee_bl (* special (+ (+ (+ (+ p9_5 p13_47) p16_6) p17_62) p19))))